# Solution for model iteration_9
# Objective value = 1.5693310486236662e+01
0 0
1 0.001
3 0.001
4 30.001
5 3.0002000000000002e+01
6 40.002
7 3.7834001598399077e+01
9 7.5694310486236660e+01
c(0,9)_rl 0
c(0,9)_ru 1.5693310486236662e+01
lambda[0] 0
lambda[1] 0
lambda[2] 0
lambda[3] 0
lambda[4] 0
lambda[5] 0
lambda[6] 0
lambda[7] 8.0421316218212435e-01
lambda[8] 1.9578683781787565e-01
